
Gurobi 13.0.2 (win64) logging started Thu Jul 23 17:04:12 2026

Set parameter LogFile to value "E:\codes\ExactEBRP\results\gf_gurobi_performance_recovery_round29\runs\stage2__moderate_seed5301__c4_candidate__300s\external\native_logs\L0.1.1.1.0.0.0.0.1_terminal_mip.gurobi.log"
Gurobi Optimizer version 13.0.2 build v13.0.2rc1 (win64 - Windows 10.0 (19045.2))

CPU model: 12th Gen Intel(R) Core(TM) i7-12700KF, instruction set [SSE2|AVX|AVX2]
Thread count: 12 physical cores, 20 logical processors, using up to 1 threads

Non-default parameters:
TimeLimit  4.5605437200000011e+01
MIPGap  0
MIPGapAbs  0
LogToConsole  0
Threads  1

Optimize a model with 11944 rows, 3386 columns and 67436 nonzeros (Min)
Model fingerprint: 0x75a67d68
Model has 21 linear objective coefficients
Variable types: 1690 continuous, 1696 integer (1496 binary)
Coefficient statistics:
  Matrix range     [9e-03, 1e+04]
  Objective range  [9e-03, 1e+00]
  Bounds range     [4e-02, 2e+02]
  RHS range        [4e-02, 5e+04]

Presolve removed 994 rows and 93 columns
Presolve time: 0.24s
Presolved: 10950 rows, 3293 columns, 75019 nonzeros
Variable types: 1635 continuous, 1658 integer (1471 binary)

Root relaxation: objective 8.225917e-02, 3379 iterations, 0.22 seconds (0.55 work units)

    Nodes    |    Current Node    |     Objective Bounds      |     Work
 Expl Unexpl |  Obj  Depth IntInf | Incumbent    BestBd   Gap | It/Node Time

     0     0    0.08226    0  189          -    0.08226      -     -    0s
     0     0    0.09197    0  287          -    0.09197      -     -    1s
     0     0 infeasible    0               - infeasible      -     -    2s

Cutting planes:
  Learned: 4
  Gomory: 1
  Cover: 21
  Implied bound: 145
  Clique: 7
  MIR: 228
  StrongCG: 11
  Flow cover: 62
  Zero half: 2
  Network: 14
  RLT: 16
  Relax-and-lift: 35
  BQP: 25

Explored 1 nodes (8912 simplex iterations) in 2.16 seconds (3.94 work units)
Thread count was 1 (of 20 available processors)

Solution count 0

Model is infeasible
Best objective -, best bound -, gap -

User-callback calls 1135, time in user-callback 0.00 sec
